<number of tasks>
50

<cycle time>
1000

<order strength>
0.198


<task times>
1 405
2 520
3 494
4 225
5 419
6 466
7 472
8 630
9 339
10 538
11 462
12 701
13 537
14 441
15 325
16 456
17 354
18 539
19 698
20 490
21 551
22 659
23 614
24 345
25 417
26 575
27 478
28 496
29 603
30 679
31 409
32 471
33 548
34 493
35 372
36 659
37 589
38 721
39 562
40 412
41 373
42 527
43 375
44 734
45 560
46 451
47 507
48 420
49 567
50 363

<precedence relations>
1,6
2,4
2,7
2,8
2,9
3,5
3,10
4,11
5,12
6,14
7,13
8,15
8,16
9,28
11,17
12,18
13,18
14,19
14,21
14,22
16,20
17,25
18,23
18,26
18,27
19,24
19,29
21,28
22,30
23,31
24,32
25,36
26,35
27,33
27,37
27,38
28,34
29,39
31,42
32,43
33,40
34,41
35,42
36,44
36,45
37,46
40,47
41,48
45,48
45,50
46,49

<end>
